Problem:    
Rows:       248
Columns:    89 (72 integer, 72 binary)
Non-zeros:  820
Status:     INTEGER OPTIMAL
Objective:  value = 99.315475 (MINimum)

   No.   Row name        Activity     Lower bound   Upper bound
------ ------------    ------------- ------------- -------------
     1 r.5                   2099.32             0               
     2 r.6                  -1985.66      -1989.25               
     3 r.7                   99.3155             0               
     4 r.8                  -1870.82       -1988.3               
     5 r.9                   2099.32             0               
     6 r.10                 -1954.77      -1987.73               
     7 r.11                  99.3155             0               
     8 r.12                  10.7966      -1988.28               
     9 r.13                  99.3155             0               
    10 r.14                  -1857.1      -1981.65               
    11 r.15                  2099.32             0               
    12 r.16                 -1957.77      -1983.85               
    13 r.17                  2099.32             0               
    14 r.18                 -1973.92      -1989.76               
    15 r.19                  99.3155             0               
    16 r.20                 -1862.14      -1988.32               
    17 r.21                  99.3155             0               
    18 r.22                  9.58816      -1991.01               
    19 r.23                  2099.32             0               
    20 r.24                 -1985.92      -1990.72               
    21 r.25                  99.3155             0               
    22 r.26                 -1876.95      -1976.26               
    23 r.27                  2099.32             0               
    24 r.28                 -1900.68      -1990.82               
    25 r.29                  2099.32             0               
    26 r.30                 -1900.68      -1975.97               
    27 r.31                  99.3155             0               
    28 r.32                 -1885.53      -1990.87               
    29 r.33                  2099.32             0               
    30 r.34                 -1997.68      -1997.68               
    31 r.35                  99.3155             0               
    32 r.36                    2.315      -1994.64               
    33 r.37                        1             1             = 
    34 r.38                        1             1             = 
    35 r.39                        1             1             = 
    36 r.40                        1             1             = 
    37 r.41                        1             1             = 
    38 r.42                        1             1             = 
    39 r.43                        1             1             = 
    40 r.44                        1             1             = 
    41 r.45                  29.3872       12.2741               
    42 r.46                 -29.3872      -1989.25               
    43 r.47                  1884.62        11.724               
    44 r.48                 -1884.62       -1988.3               
    45 r.49                  127.065       18.3502               
    46 r.50                 -125.565      -1989.25               
    47 r.51                  1916.05       16.1505               
    48 r.52                 -1919.05       -1988.3               
    49 r.53                  10.2367       10.2367               
    50 r.54                 -10.2367      -1989.25               
    51 r.55                  11.6774       11.6774               
    52 r.56                 -11.6774       -1988.3               
    53 r.57                  1990.75        8.9927               
    54 r.58                 -1987.75      -1989.25               
    55 r.59                   1893.9        9.2794               
    56 r.60                  -1899.9       -1988.3               
    57 r.61                 -1892.79       -1946.2               
    58 r.62                 -1916.52       -1930.7               
    59 r.63                 -3.12505       -1946.2               
    60 r.64                 -26.8632       -1930.7               
    61 r.65                  83.4762       24.0282               
    62 r.66                 -83.4762      -1989.25               
    63 r.67                   1988.3        9.1268               
    64 r.68                  -1988.3       -1988.3               
    65 r.69                 -1986.48      -1987.75               
    66 r.70                 -1876.14       -1985.3               
    67 r.71                 -1986.48      -1987.75               
    68 r.72                 -1876.14       -1985.3               
    69 r.73                  1969.11       10.7511               
    70 r.74                 -1970.61      -1987.73               
    71 r.75                  118.382       11.7039               
    72 r.76                 -115.382      -1988.28               
    73 r.77                  97.6773       18.3502               
    74 r.78                 -96.1773      -1987.73               
    75 r.79                  31.4299       16.1505               
    76 r.80                 -34.4299      -1988.28               
    77 r.81                  1980.85       10.2367               
    78 r.82                 -1980.85      -1987.73               
    79 r.83                   127.06       11.6774               
    80 r.84                  -127.06      -1988.28               
    81 r.85                  1961.36        8.9927               
    82 r.86                 -1958.36      -1987.73               
    83 r.87                   9.2794        9.2794               
    84 r.88                 -15.2794      -1988.28               
    85 r.89                  77.8272       23.7382               
    86 r.90                 -77.8272      -1987.73               
    87 r.91                  88.5189        9.1765               
    88 r.92                 -88.5189      -1988.28               
    89 r.93                 -1945.91      -1945.91               
    90 r.94                 -1930.75      -1930.75               
    91 r.95                 -1911.48      -1945.91               
    92 r.96                 -1896.32      -1930.75               
    93 r.97                 -1957.09      -1986.23               
    94 r.98                  8.48162      -1985.28               
    95 r.99                 -1957.09      -1986.23               
    96 r.100                 8.48162      -1985.28               
    97 r.101                 1872.94       10.7511               
    98 r.102                -1874.44      -1981.65               
    99 r.103                 83.9522       11.7039               
   100 r.104                -80.9522      -1983.85               
   101 r.105                 1903.82       12.2741               
   102 r.106                -1903.82      -1981.65               
   103 r.107                 1965.57        11.724               
   104 r.108                -1965.57      -1983.85               
   105 r.109                -1884.67      -1980.15               
   106 r.110                -1980.85      -1980.85               
   107 r.111                 3.54773      -1980.15               
   108 r.112                -92.6296      -1980.85               
   109 r.113                 1865.18        8.9927               
   110 r.114                -1862.18      -1981.65               
   111 r.115                 1974.85        9.2794               
   112 r.116                -1980.85      -1983.85               
   113 r.117                 1981.65       23.7382               
   114 r.118                -1981.65      -1981.65               
   115 r.119                  54.089        9.1765               
   116 r.120                 -54.089      -1983.85               
   117 r.121                -42.0884      -1945.91               
   118 r.122                 -26.929      -1930.75               
   119 r.123                -1945.91      -1945.91               
   120 r.124                -1930.75      -1930.75               
   121 r.125                -1860.91      -1980.15               
   122 r.126                -1957.09      -1980.85               
   123 r.127                -1860.91      -1980.15               
   124 r.128                -1957.09      -1980.85               
   125 r.129                 1988.26       10.7511               
   126 r.130                -1989.76      -1989.76               
   127 r.131                 1991.32       11.7039               
   128 r.132                -1988.32      -1988.32               
   129 r.133                 19.1505       12.2741               
   130 r.134                -19.1505      -1989.76               
   131 r.135                 1872.94        11.724               
   132 r.136                -1872.94      -1988.32               
   133 r.137                -1884.67      -1980.15               
   134 r.138                -1980.85      -1980.85               
   135 r.139                 3.54773      -1980.15               
   136 r.140                -92.6296      -1980.85               
   137 r.141                 1980.51        8.9927               
   138 r.142                -1977.51      -1989.76               
   139 r.143                 1882.22        9.2794               
   140 r.144                -1888.22      -1988.32               
   141 r.145                 96.9777       23.7382               
   142 r.146                -96.9777      -1989.76               
   143 r.147                 1961.46        9.1765               
   144 r.148                -1961.46      -1988.32               
   145 r.149                -1926.76      -1945.91               
   146 r.150                 -1911.6      -1930.75               
   147 r.151                -38.5406      -1945.91               
   148 r.152                -23.3813      -1930.75               
   149 r.153                -1976.24      -1976.24               
   150 r.154                -1864.46      -1961.27               
   151 r.155                -1976.24      -1976.24               
   152 r.156                -1864.46      -1961.27               
   153 r.157                 10.7511       10.7511               
   154 r.158                -12.2511      -1991.01               
   155 r.159                 103.103       11.7039               
   156 r.160                -100.103      -1990.72               
   157 r.161                 41.6384       12.2741               
   158 r.162                -41.6384      -1991.01               
   159 r.163                 1984.72        11.724               
   160 r.164                -1984.72      -1990.72               
   161 r.165                 139.316       18.3502               
   162 r.166                -137.816      -1991.01               
   163 r.167                 16.1505       16.1505               
   164 r.168                -19.1505      -1990.72               
   165 r.169                 22.4879       10.2367               
   166 r.170                -22.4879      -1991.01               
   167 r.171                  111.78       11.6774               
   168 r.172                 -111.78      -1990.72               
   169 r.173                -1880.53       -1946.2               
   170 r.174                -1904.27       -1930.7               
   171 r.175                -1903.02       -1946.2               
   172 r.176                -1926.76       -1930.7               
   173 r.177                -1904.27      -1945.91               
   174 r.178                -1889.11      -1930.75               
   175 r.179                -1926.76      -1945.91               
   176 r.180                 -1911.6      -1930.75               
   177 r.181                 1.27316      -1988.01               
   178 r.182                -1976.24      -1984.72               
   179 r.183                 1.27316      -1988.01               
   180 r.184                -1976.24      -1984.72               
   181 r.185                -1892.79       -1946.2               
   182 r.186                -1916.52       -1930.7               
   183 r.187                -3.12505       -1946.2               
   184 r.188                -26.8632       -1930.7               
   185 r.189                 1922.17       12.2741               
   186 r.190                -1922.17      -1976.26               
   187 r.191                 1911.48        11.724               
   188 r.192                -1911.48      -1990.82               
   189 r.193                 19.8502       18.3502               
   190 r.194                -18.3502      -1976.26               
   191 r.195                 1942.91       16.1505               
   192 r.196                -1945.91      -1990.82               
   193 r.197                 1903.02       10.2367               
   194 r.198                -1903.02      -1976.26               
   195 r.199                 38.5406       11.6774               
   196 r.200                -38.5406      -1990.82               
   197 r.201                -1880.53       -1946.2               
   198 r.202                -1904.27       -1930.7               
   199 r.203                -1903.02       -1946.2               
   200 r.204                -1926.76       -1930.7               
   201 r.205                 1976.26       24.0282               
   202 r.206                -1976.26      -1976.26               
   203 r.207                 15.1593        9.1268               
   204 r.208                -15.1593      -1990.82               
   205 r.209                 1915.02       10.7511               
   206 r.210                -1916.52      -1975.97               
   207 r.211                 14.7039       11.7039               
   208 r.212                -11.7039      -1990.87               
   209 r.213                -1945.91      -1945.91               
   210 r.214                -1930.75      -1930.75               
   211 r.215                -1911.48      -1945.91               
   212 r.216                -1896.32      -1930.75               
   213 r.217                -42.0884      -1945.91               
   214 r.218                 -26.929      -1930.75               
   215 r.219                -1945.91      -1945.91               
   216 r.220                -1930.75      -1930.75               
   217 r.221                -1926.76      -1945.91               
   218 r.222                 -1911.6      -1930.75               
   219 r.223                -38.5406      -1945.91               
   220 r.224                -23.3813      -1930.75               
   221 r.225                -1904.27      -1945.91               
   222 r.226                -1889.11      -1930.75               
   223 r.227                -1926.76      -1945.91               
   224 r.228                 -1911.6      -1930.75               
   225 r.229                 23.7382       23.7382               
   226 r.230                -23.7382      -1975.97               
   227 r.231                 1984.84        9.1765               
   228 r.232                -1984.84      -1990.87               
   229 r.233                -1986.48      -1987.75               
   230 r.234                -1876.14       -1985.3               
   231 r.235                -1986.48      -1987.75               
   232 r.236                -1876.14       -1985.3               
   233 r.237                -1957.09      -1986.23               
   234 r.238                 8.48162      -1985.28               
   235 r.239                -1957.09      -1986.23               
   236 r.240                 8.48162      -1985.28               
   237 r.241                -1860.91      -1980.15               
   238 r.242                -1957.09      -1980.85               
   239 r.243                -1860.91      -1980.15               
   240 r.244                -1957.09      -1980.85               
   241 r.245                -1976.24      -1976.24               
   242 r.246                -1864.46      -1961.27               
   243 r.247                -1976.24      -1976.24               
   244 r.248                -1864.46      -1961.27               
   245 r.249                 1.27316      -1988.01               
   246 r.250                -1976.24      -1984.72               
   247 r.251                 1.27316      -1988.01               
   248 r.252                -1976.24      -1984.72               

   No. Column name       Activity     Lower bound   Upper bound
------ ------------    ------------- ------------- -------------
     1 tt                    99.3155             0               
     2 s_1_1        *              1             0             1 
     3 t_1_1                 83.4762             0               
     4 s_1_6        *              0             0             1 
     5 s_2_1        *              0             0             1 
     6 t_2_1                 1973.14             0               
     7 s_2_6        *              1             0             1 
     8 s_1_2        *              1             0             1 
     9 t_1_2                  54.089             0               
    10 s_1_7        *              1             0             1 
    11 s_2_2        *              0             0             1 
    12 t_2_2                 88.5189             0               
    13 s_2_7        *              0             0             1 
    14 s_1_3        *              0             0             1 
    15 t_1_3                 1957.91             0               
    16 s_2_3        *              1             0             1 
    17 t_2_3                  54.089             0               
    18 s_1_4        *              1             0             1 
    19 t_1_4                 73.2395             0               
    20 s_2_4        *              0             0             1 
    21 t_2_4                 1961.46             0               
    22 s_1_5        *              0             0             1 
    23 t_1_5                 95.7273             0               
    24 s_2_5        *              1             0             1 
    25 t_2_5                 73.2395             0               
    26 t_1_6                 1976.26             0               
    27 t_2_6                       0             0               
    28 t_1_7                       0             0               
    29 t_2_7                 1984.84             0               
    30 s_1_8        *              1             0             1 
    31 t_1_8                 97.0005             0               
    32 s_2_8        *              0             0             1 
    33 t_2_8                 97.0005             0               
    34 u_1_1_2      *              0             0             1 
    35 u_2_1_2      *              0             0             1 
    36 u_1_1_3      *              1             0             1 
    37 u_2_1_3      *              0             0             1 
    38 u_1_1_4      *              0             0             1 
    39 u_2_1_4      *              0             0             1 
    40 u_1_1_5      *              1             0             1 
    41 u_2_1_5      *              0             0             1 
    42 u_1_1_7      *              0             0             1 
    43 u_2_1_7      *              1             0             1 
    44 u_1_2_1      *              1             0             1 
    45 u_2_2_1      *              1             0             1 
    46 u_1_2_3      *              1             0             1 
    47 u_2_2_3      *              0             0             1 
    48 u_1_2_4      *              1             0             1 
    49 u_2_2_4      *              1             0             1 
    50 u_1_2_5      *              1             0             1 
    51 u_2_2_5      *              0             0             1 
    52 u_1_2_6      *              1             0             1 
    53 u_2_2_6      *              0             0             1 
    54 u_1_3_1      *              0             0             1 
    55 u_2_3_1      *              1             0             1 
    56 u_1_3_2      *              0             0             1 
    57 u_2_3_2      *              1             0             1 
    58 u_1_3_5      *              0             0             1 
    59 u_2_3_5      *              1             0             1 
    60 u_1_3_6      *              1             0             1 
    61 u_2_3_6      *              0             0             1 
    62 u_1_4_1      *              1             0             1 
    63 u_2_4_1      *              1             0             1 
    64 u_1_4_2      *              0             0             1 
    65 u_2_4_2      *              0             0             1 
    66 u_1_4_5      *              1             0             1 
    67 u_2_4_5      *              0             0             1 
    68 u_1_4_6      *              1             0             1 
    69 u_2_4_6      *              0             0             1 
    70 u_1_5_1      *              0             0             1 
    71 u_2_5_1      *              1             0             1 
    72 u_1_5_2      *              0             0             1 
    73 u_2_5_2      *              1             0             1 
    74 u_1_5_3      *              1             0             1 
    75 u_2_5_3      *              0             0             1 
    76 u_1_5_4      *              0             0             1 
    77 u_2_5_4      *              1             0             1 
    78 u_1_6_2      *              0             0             1 
    79 u_2_6_2      *              1             0             1 
    80 u_1_6_3      *              0             0             1 
    81 u_2_6_3      *              1             0             1 
    82 u_1_6_4      *              0             0             1 
    83 u_2_6_4      *              1             0             1 
    84 u_1_6_7      *              0             0             1 
    85 u_2_6_7      *              1             0             1 
    86 u_1_7_1      *              1             0             1 
    87 u_2_7_1      *              0             0             1 
    88 u_1_7_6      *              1             0             1 
    89 u_2_7_6      *              0             0             1 

Integer feasibility conditions:

KKT.PE: max.abs.err = 4.55e-13 on row 53
        max.rel.err = 1.11e-16 on row 103
        High quality

KKT.PB: max.abs.err = 2.49e-13 on row 49
        max.rel.err = 2.21e-14 on row 49
        High quality

End of output
